CPXPARAM_TimeLimit                               7200
CPXPARAM_Read_DataCheck                          1
Parallel mode: deterministic, using up to 8 threads for concurrent optimization.
Tried aggregator 1 time.
LP Presolve eliminated 109 rows and 0 columns.
Reduced LP has 10001 rows, 1801 columns, and 29227 nonzeros.
Presolve time = 0.00 sec. (4.49 ticks)

Iteration log . . .
Iteration:     1   Dual objective     =          1162.000000
Perturbation started.
Iteration:   214   Dual objective     =          1162.000000
Initializing dual steep norms . . .
Iteration:   215   Dual objective     =          1162.000094
Iteration:   498   Dual objective     =          1162.015217
Iteration:   770   Dual objective     =          1162.015958
Iteration:  1031   Dual objective     =          1162.016248
Iteration:  1216   Dual objective     =          1162.016388
Iteration:  1390   Dual objective     =          1162.016678
Iteration:  1560   Dual objective     =          1162.016740
Iteration:  1733   Dual objective     =          1162.016944
Iteration:  1914   Dual objective     =          1162.016966
Iteration:  2096   Dual objective     =          1162.016995
Iteration:  2301   Dual objective     =          1162.017536
Removing perturbation.

Dual simplex solved model.

